Route 1: 27 69 76 28 58 40 26 53 13 92 89
Route 2: 95 59 99 6 52 18 60 96 93 91 100
Route 3: 72 21 2 57 87 94 37 97 42
Route 4: 98 16 85 61 5 17 84 45 48
Route 5: 83 8 82 7 62 88 10 32 70
Route 6: 41 73 22 75 74 56 4 54 24
Route 7: 38 86 44 14 43 15
Route 8: 47 19 11 63 90 66 20 68
Route 9: 29 25 55 39 67 23 80
Route 10: 31 30 64 49 36 46
Route 11: 65 71 33 3 79 50 77
Route 12: 12 9 51 81 78 34 35 1
Vehicles: 12
Distance: 1430.42
